letting n =  10
letting blocks =  [[1, 1], [1, 2], [1, 5], [2, 2], [3, 4], [3, 6], [4, 1], [4, 2], [4, 4], [4, 6], [4, 9], [5, 3], [5, 4], [6, 4], [6, 6], [6, 7], [6, 9], [7, 1], [7, 2], [7, 9], [7, 10], [8, 2], [8, 5], [8, 8], [8, 10], [9, 2], [9, 4], [9, 7], [9, 9], [10, 4], [10, 5], [10, 10]]
